g3 0 1 0	# problem kport40
 267 48 1 0 39	# vars, constraints, objectives, ranges, eqns
 38 0	# nonlinear constraints, objectives
 0 0	# network constraints: nonlinear, linear
 225 0 0	# nonlinear vars in constraints, objectives, both
 0 0 0 1	# linear network variables; functions; arith, flags
 3 0 0 111 0	# discrete variables: binary, integer, nonlinear (b,c,o)
 504 2	# nonzeros in Jacobian, gradients
 3 4	# max name lengths: constraints, variables
 0 0 0 0 0	# common exprs: b,c,o,c1,o1
b
0 .4 1
0 .4 1
0 .4 1
0 .4 1
0 .4 1
0 .4 1
0 .4 1
0 .4 1
0 .4 1
0 .4 1
0 .4 1
0 .4 1
0 .4 1
0 .4 1
0 .4 1
0 .4 1
0 .4 1
0 .4 1
0 .4 1
0 .4 1
0 .4 1
0 .4 1
0 .4 1
0 .4 1
0 .4 1
0 .4 1
0 .4 1
0 .4 1
0 .4 1
0 .4 1
0 .4 1
0 .4 1
0 .4 1
0 .4 1
0 .4 1
0 .4 1
0 .4 1
0 .4 1
0 .4 1
0 .4 1
0 .4 1
0 .4 1
0 .4 1
0 .4 1
0 .4 1
0 .4 1
0 .4 1
0 .4 1
0 .4 1
0 .4 1
0 .4 1
0 .4 1
0 .4 1
0 .4 1
0 .4 1
0 .4 1
0 .4 1
0 .4 1
0 .4 1
0 .4 1
0 .4 1
0 .4 1
0 .4 1
0 .4 1
0 .4 1
0 .4 1
0 .4 1
0 .4 1
0 .4 1
0 .4 1
0 .4 1
0 .4 1
0 .4 1
0 .4 1
0 .4 1
0 .4 1
0 .4 1
0 .4 1
0 .4 1
0 .4 1
0 .4 1
0 .4 1
0 .4 1
0 .4 1
0 .4 1
0 .4 1
0 .4 1
0 .4 1
0 .4 1
0 .4 1
0 .4 1
0 .4 1
0 .4 1
0 .4 1
0 .4 1
0 .4 1
0 .4 1
0 .4 1
0 .4 1
0 .4 1
0 .4 1
0 .4 1
0 .4 1
0 .4 1
0 .4 1
0 .4 1
0 .4 1
0 .4 1
0 .4 1
0 .4 1
0 .4 1
2 20
2 52.5
2 151.25
0 0 28
0 0 28
0 0 28
0 0 28
0 0 28
0 0 28
0 0 28
0 0 28
0 0 27
0 0 27
0 0 2
0 0 27
0 0 22
0 0 22
0 0 22
0 0 17
0 0 12
0 0 7
0 0 2
0 0 2
0 0 2
0 0 28
0 0 28
0 0 17
0 0 17
0 0 10
0 0 10
0 0 10
0 0 7
0 0 5
0 0 5
0 0 5
0 0 2
0 0 2
0 0 2
0 0 2
0 0 2
0 0 28
0 0 28
0 0 28
0 0 28
0 0 28
0 0 28
0 0 28
0 0 13
0 0 10
0 0 10
4 0
0 0 10
0 0 8
0 0 8
0 0 8
0 0 6
0 0 4
0 0 2
4 0
4 0
4 0
0 0 18
0 0 17
0 0 6
0 0 6
0 0 3
0 0 3
0 0 3
0 0 2
0 0 1
0 0 1
0 0 1
4 0
4 0
4 0
4 0
4 0
0 0 28
0 0 28
0 0 14
0 0 28
0 0 18
0 0 17
0 0 17
0 0 4
0 0 3
0 0 3
4 0
0 0 3
0 0 2
0 0 2
0 0 2
0 0 2
0 0 1
4 0
4 0
4 0
4 0
0 0 6
0 0 5
0 0 2
0 0 2
0 0 1
0 0 1
0 0 1
4 0
4 0
4 0
4 0
4 0
4 0
4 0
4 0
4 0
3
3
0 0 1
0 0 1
0 0 1
0 0 1
0 0 1
0 0 1
0 0 1
0 0 1
0 0 1
0 0 1
0 0 1
0 0 1
0 0 1
0 0 1
0 0 1
0 0 1
0 0 1
0 0 1
0 0 1
0 0 1
0 0 1
0 0 1
0 0 1
0 0 1
0 0 1
0 0 1
0 0 1
0 0 1
0 0 1
0 0 1
0 0 1
0 0 1
0 0 1
0 0 1
0 0 1
0 0 1
0 0 1
0 0 1
0 0 1
0 0 1
x114
0 .4
1 .4
2 .4
3 .4
4 .4
5 .4
6 .4
7 .4
8 .4
9 .4
10 .4
11 .4
12 .4
13 .4
14 .4
15 .4
16 .4
17 .4
18 .4
19 .4
20 .4
21 .4
22 .4
23 .4
24 .4
25 .4
26 .4
27 .4
28 .4
29 .4
30 .4
31 .4
32 .4
33 .4
34 .4
35 .4
36 .4
37 .4
38 .4
39 .4
40 .4
41 .4
42 .4
43 .4
44 .4
45 .4
46 .4
47 .4
48 .4
49 .4
50 .4
51 .4
52 .4
53 .4
54 .4
55 .4
56 .4
57 .4
58 .4
59 .4
60 .4
61 .4
62 .4
63 .4
64 .4
65 .4
66 .4
67 .4
68 .4
69 .4
70 .4
71 .4
72 .4
73 .4
74 .4
75 .4
76 .4
77 .4
78 .4
79 .4
80 .4
81 .4
82 .4
83 .4
84 .4
85 .4
86 .4
87 .4
88 .4
89 .4
90 .4
91 .4
92 .4
93 .4
94 .4
95 .4
96 .4
97 .4
98 .4
99 .4
100 .4
101 .4
102 .4
103 .4
104 .4
105 .4
106 .4
107 .4
108 .4
109 .4
110 .4
111 99
112 99
113 151.25
r
4 0
4 -1
4 -1
4 -1
4 -1
4 -1
4 -1
4 -1
4 -1
4 -1
4 -1
4 -1
4 -1
4 -1
4 -1
4 -1
4 -1
4 -1
4 -1
4 -1
4 -1
4 -1
4 -1
4 -1
4 -1
4 -1
4 -1
4 -1
4 -1
4 -1
4 -1
4 -1
4 -1
4 -1
4 -1
4 -1
4 -1
4 -1
4 0
1 0
1 0
1 0
2 0
2 0
2 0
1 0
1 0
1 0
C0
o16
o54
3
o2
n.98488578017961
o5
v111
n.5
o2
n.98488578017961
o5
v112
n.5
o2
n.98488578017961
o5
v113
n.5
C1
o2
n-3.84615384615385e-4
o54
3
o2
o2
v114
v0
v111
o2
o2
v151
v37
v112
o2
o2
v188
v74
v113
C2
o2
n-4.34782608695652e-4
o54
3
o2
o2
v115
v1
v111
o2
o2
v152
v38
v112
o2
o2
v189
v75
v113
C3
o2
n-2.22222222222222e-3
o54
3
o2
o2
v116
v2
v111
o2
o2
v153
v39
v112
o2
o2
v190
v76
v113
C4
o2
n-8.33333333333333e-4
o54
3
o2
o2
v117
v3
v111
o2
o2
v154
v40
v112
o2
o2
v191
v77
v113
C5
o2
n-1.78571428571429e-3
o54
3
o2
o2
v118
v4
v111
o2
o2
v155
v41
v112
o2
o2
v192
v78
v113
C6
o2
n-1.88679245283019e-3
o54
3
o2
o2
v119
v5
v111
o2
o2
v156
v42
v112
o2
o2
v193
v79
v113
C7
o2
n-1.88679245283019e-3
o54
3
o2
o2
v120
v6
v111
o2
o2
v157
v43
v112
o2
o2
v194
v80
v113
C8
o2
n-7.14285714285714e-3
o54
3
o2
o2
v121
v7
v111
o2
o2
v158
v44
v112
o2
o2
v195
v81
v113
C9
o2
n-9.09090909090909e-3
o54
3
o2
o2
v122
v8
v111
o2
o2
v159
v45
v112
o2
o2
v196
v82
v113
C10
o2
n-9.09090909090909e-3
o54
3
o2
o2
v123
v9
v111
o2
o2
v160
v46
v112
o2
o2
v197
v83
v113
C11
o2
n-.1
o54
3
o2
o2
v124
v10
v111
o2
o2
v161
v47
v112
o2
o2
v198
v84
v113
C12
o2
n-9.09090909090909e-3
o54
3
o2
o2
v125
v11
v111
o2
o2
v162
v48
v112
o2
o2
v199
v85
v113
C13
o2
n-1.11111111111111e-2
o54
3
o2
o2
v126
v12
v111
o2
o2
v163
v49
v112
o2
o2
v200
v86
v113
C14
o2
n-1.11111111111111e-2
o54
3
o2
o2
v127
v13
v111
o2
o2
v164
v50
v112
o2
o2
v201
v87
v113
C15
o2
n-1.11111111111111e-2
o54
3
o2
o2
v128
v14
v111
o2
o2
v165
v51
v112
o2
o2
v202
v88
v113
C16
o2
n-1.42857142857143e-2
o54
3
o2
o2
v129
v15
v111
o2
o2
v166
v52
v112
o2
o2
v203
v89
v113
C17
o2
n-2e-2
o54
3
o2
o2
v130
v16
v111
o2
o2
v167
v53
v112
o2
o2
v204
v90
v113
C18
o2
n-3.33333333333333e-2
o54
3
o2
o2
v131
v17
v111
o2
o2
v168
v54
v112
o2
o2
v205
v91
v113
C19
o2
n-.1
o54
3
o2
o2
v132
v18
v111
o2
o2
v169
v55
v112
o2
o2
v206
v92
v113
C20
o2
n-.1
o54
3
o2
o2
v133
v19
v111
o2
o2
v170
v56
v112
o2
o2
v207
v93
v113
C21
o2
n-.1
o54
3
o2
o2
v134
v20
v111
o2
o2
v171
v57
v112
o2
o2
v208
v94
v113
C22
o2
n-5.26315789473684e-3
o54
3
o2
o2
v135
v21
v111
o2
o2
v172
v58
v112
o2
o2
v209
v95
v113
C23
o2
n-5.55555555555556e-3
o54
3
o2
o2
v136
v22
v111
o2
o2
v173
v59
v112
o2
o2
v210
v96
v113
C24
o2
n-1.42857142857143e-2
o54
3
o2
o2
v137
v23
v111
o2
o2
v174
v60
v112
o2
o2
v211
v97
v113
C25
o2
n-1.42857142857143e-2
o54
3
o2
o2
v138
v24
v111
o2
o2
v175
v61
v112
o2
o2
v212
v98
v113
C26
o2
n-2.5e-2
o54
3
o2
o2
v139
v25
v111
o2
o2
v176
v62
v112
o2
o2
v213
v99
v113
C27
o2
n-2.5e-2
o54
3
o2
o2
v140
v26
v111
o2
o2
v177
v63
v112
o2
o2
v214
v100
v113
C28
o2
n-2.5e-2
o54
3
o2
o2
v141
v27
v111
o2
o2
v178
v64
v112
o2
o2
v215
v101
v113
C29
o2
n-3.33333333333333e-2
o54
3
o2
o2
v142
v28
v111
o2
o2
v179
v65
v112
o2
o2
v216
v102
v113
C30
o2
n-5e-2
o54
3
o2
o2
v143
v29
v111
o2
o2
v180
v66
v112
o2
o2
v217
v103
v113
C31
o2
n-5e-2
o54
3
o2
o2
v144
v30
v111
o2
o2
v181
v67
v112
o2
o2
v218
v104
v113
C32
o2
n-5e-2
o54
3
o2
o2
v145
v31
v111
o2
o2
v182
v68
v112
o2
o2
v219
v105
v113
C33
o2
n-.1
o54
3
o2
o2
v146
v32
v111
o2
o2
v183
v69
v112
o2
o2
v220
v106
v113
C34
o2
n-.1
o54
3
o2
o2
v147
v33
v111
o2
o2
v184
v70
v112
o2
o2
v221
v107
v113
C35
o2
n-.1
o54
3
o2
o2
v148
v34
v111
o2
o2
v185
v71
v112
o2
o2
v222
v108
v113
C36
o2
n-.1
o54
3
o2
o2
v149
v35
v111
o2
o2
v186
v72
v112
o2
o2
v223
v109
v113
C37
o2
n-.1
o54
3
o2
o2
v150
v36
v111
o2
o2
v187
v73
v112
o2
o2
v224
v110
v113
C38
n0
C39
n0
C40
n0
C41
n0
C42
n0
C43
n0
C44
n0
C45
n0
C46
n0
C47
n0
O0 0
n0
k266
1
2
3
4
5
6
7
8
9
10
11
12
13
14
15
16
17
18
19
20
21
22
23
24
25
26
27
28
29
30
31
32
33
34
35
36
37
38
39
40
41
42
43
44
45
46
47
48
49
50
51
52
53
54
55
56
57
58
59
60
61
62
63
64
65
66
67
68
69
70
71
72
73
74
75
76
77
78
79
80
81
82
83
84
85
86
87
88
89
90
91
92
93
94
95
96
97
98
99
100
101
102
103
104
105
106
107
108
109
110
111
151
191
231
233
235
237
239
241
243
245
247
249
251
253
255
257
259
261
263
265
267
269
271
273
275
277
279
281
283
285
287
289
291
293
295
297
299
301
303
305
307
309
311
313
315
317
319
321
323
325
327
329
331
333
335
337
339
341
343
345
347
349
351
353
355
357
359
361
363
365
367
369
371
373
375
377
379
381
383
385
387
389
391
393
395
397
399
401
403
405
407
409
411
413
415
417
419
421
423
425
427
429
431
433
435
437
439
441
443
445
447
449
451
453
454
455
456
457
458
459
460
461
462
463
464
465
466
467
468
469
470
471
472
473
474
475
476
477
478
479
480
481
482
483
484
485
486
487
488
489
490
491
492
496
500
J0 4
111 0
112 0
113 0
225 1
J1 10
0 0
37 0
74 0
111 0
112 0
113 0
114 0
151 0
188 0
227 1
J2 10
1 0
38 0
75 0
111 0
112 0
113 0
115 0
152 0
189 0
228 1
J3 10
2 0
39 0
76 0
111 0
112 0
113 0
116 0
153 0
190 0
229 1
J4 10
3 0
40 0
77 0
111 0
112 0
113 0
117 0
154 0
191 0
230 1
J5 10
4 0
41 0
78 0
111 0
112 0
113 0
118 0
155 0
192 0
231 1
J6 10
5 0
42 0
79 0
111 0
112 0
113 0
119 0
156 0
193 0
232 1
J7 10
6 0
43 0
80 0
111 0
112 0
113 0
120 0
157 0
194 0
233 1
J8 10
7 0
44 0
81 0
111 0
112 0
113 0
121 0
158 0
195 0
234 1
J9 10
8 0
45 0
82 0
111 0
112 0
113 0
122 0
159 0
196 0
235 1
J10 10
9 0
46 0
83 0
111 0
112 0
113 0
123 0
160 0
197 0
236 1
J11 10
10 0
47 0
84 0
111 0
112 0
113 0
124 0
161 0
198 0
237 1
J12 10
11 0
48 0
85 0
111 0
112 0
113 0
125 0
162 0
199 0
238 1
J13 10
12 0
49 0
86 0
111 0
112 0
113 0
126 0
163 0
200 0
239 1
J14 10
13 0
50 0
87 0
111 0
112 0
113 0
127 0
164 0
201 0
240 1
J15 10
14 0
51 0
88 0
111 0
112 0
113 0
128 0
165 0
202 0
241 1
J16 10
15 0
52 0
89 0
111 0
112 0
113 0
129 0
166 0
203 0
242 1
J17 10
16 0
53 0
90 0
111 0
112 0
113 0
130 0
167 0
204 0
243 1
J18 10
17 0
54 0
91 0
111 0
112 0
113 0
131 0
168 0
205 0
244 1
J19 10
18 0
55 0
92 0
111 0
112 0
113 0
132 0
169 0
206 0
245 1
J20 10
19 0
56 0
93 0
111 0
112 0
113 0
133 0
170 0
207 0
246 1
J21 10
20 0
57 0
94 0
111 0
112 0
113 0
134 0
171 0
208 0
247 1
J22 10
21 0
58 0
95 0
111 0
112 0
113 0
135 0
172 0
209 0
248 1
J23 10
22 0
59 0
96 0
111 0
112 0
113 0
136 0
173 0
210 0
249 1
J24 10
23 0
60 0
97 0
111 0
112 0
113 0
137 0
174 0
211 0
250 1
J25 10
24 0
61 0
98 0
111 0
112 0
113 0
138 0
175 0
212 0
251 1
J26 10
25 0
62 0
99 0
111 0
112 0
113 0
139 0
176 0
213 0
252 1
J27 10
26 0
63 0
100 0
111 0
112 0
113 0
140 0
177 0
214 0
253 1
J28 10
27 0
64 0
101 0
111 0
112 0
113 0
141 0
178 0
215 0
254 1
J29 10
28 0
65 0
102 0
111 0
112 0
113 0
142 0
179 0
216 0
255 1
J30 10
29 0
66 0
103 0
111 0
112 0
113 0
143 0
180 0
217 0
256 1
J31 10
30 0
67 0
104 0
111 0
112 0
113 0
144 0
181 0
218 0
257 1
J32 10
31 0
68 0
105 0
111 0
112 0
113 0
145 0
182 0
219 0
258 1
J33 10
32 0
69 0
106 0
111 0
112 0
113 0
146 0
183 0
220 0
259 1
J34 10
33 0
70 0
107 0
111 0
112 0
113 0
147 0
184 0
221 0
260 1
J35 10
34 0
71 0
108 0
111 0
112 0
113 0
148 0
185 0
222 0
261 1
J36 10
35 0
72 0
109 0
111 0
112 0
113 0
149 0
186 0
223 0
262 1
J37 10
36 0
73 0
110 0
111 0
112 0
113 0
150 0
187 0
224 0
263 1
J38 4
226 1
264 -2.45
265 -2.45
266 -2.45
J39 38
114 6
115 6
116 6
117 6
118 6
119 6
120 6
121 6
122 6
123 6
124 6
125 6
126 6
127 6
128 6
129 6
130 6
131 6
132 6
133 6
134 6
135 6
136 6
137 6
138 6
139 6
140 6
141 6
142 6
143 6
144 6
145 6
146 6
147 6
148 6
149 6
150 6
264 -168
J40 38
151 6
152 6
153 6
154 6
155 6
156 6
157 6
158 6
159 6
160 6
161 6
162 6
163 6
164 6
165 6
166 6
167 6
168 6
169 6
170 6
171 6
172 6
173 6
174 6
175 6
176 6
177 6
178 6
179 6
180 6
181 6
182 6
183 6
184 6
185 6
186 6
187 6
265 -168
J41 38
188 6
189 6
190 6
191 6
192 6
193 6
194 6
195 6
196 6
197 6
198 6
199 6
200 6
201 6
202 6
203 6
204 6
205 6
206 6
207 6
208 6
209 6
210 6
211 6
212 6
213 6
214 6
215 6
216 6
217 6
218 6
219 6
220 6
221 6
222 6
223 6
224 6
266 -168
J42 2
111 1
264 -20
J43 2
112 1
265 -52.5
J44 2
113 1
266 -151.25
J45 2
111 1
264 -50
J46 2
112 1
265 -2.5e2
J47 2
113 1
266 -2.5e2
G0 2
225 1
226 1
